c description: Random 3-CNF over 13 variables and 6 clauses
c generator: CNFgen (0.9.0)
c copyright: (C) 2012-2020 Massimo Lauria <massimo.lauria@uniroma1.it>
c url: https://massimolauria.net/cnfgen
c
p cnf 13 6
5 8 -12 0
2 9 12 0
1 -3 -7 0
-10 11 12 0
-1 9 10 0
-3 5 12 0